Here is my CPLEX code for problem 3.10.  It checks out ;- )  Incidently, THIS is why you want to be able to code up larger LP roblems in R code *LOL*.

/* Objective function */
max: .0525 p12 + .04691667 p11 + .040416667 p10 + .034875 p9 + .02966667 p8 + .024791667 p7 + .0202 p6 +  .016 p5 + .01213333 p4 + .0086 p3 + .0054 p2 + .002533333 p1
    .0575 q12 + .050875 q11 + .04458333 q10 + .038625 q9 + .033 q8 + .027708333 q7 + .0228 q6 + .018166667 q5 + .013866667 q4 + .0099 q3 + .006266667 q2 + .0029666667 q1
   .0625 r12 +  .055275 r11 + .048416667 r10 + .041925 r9 + .0358 r8 + .030041667 r7 + .0246 r6 + .01958333 r5 + .0149333 r4 + .01065 r3 + .00673333 r2 + .00318333 r1;
/* Variable bounds */
p12 + q12 + r12 + s12 - s0 = 3500;
p11 + q11 + r11 + s11 - s12 = 3500;
p10 + q10 + r10 + s10 - s11 = 3500;
p9 + q9 + r9 + s9 - s10 = 3500;
p8 + q8 + r8 + s8 - s9 = 3500;
p7 + q7 + r7 + s7 - s8 = 3500;
p6 + q6 + r6 + s6 - s7 = 3500;
p5 + q5 + r5 + s5 - s6 = 3500;
p4 + q4 + r4 + s4 - s5 = 3500;
p3 + q3 + r3 + s3 - s4 = 3500;
p2 + q2 + r2 + s2 - s3 = 3500;
p1 + q1 + r1 + s1 - s2 = 3500;
s0 = 0;
p1 < 4000 a1;
p2 < 4000 a2;
p3 < 4000 a3;
p4 < 4000 a4;
p5 < 4000 a5;
p6 < 4000 a6;
p7 < 4000 a7;
p8 < 4000 a8;
p9 < 4000 a9;
p10 < 4000 a10;
p11 < 4000 a11;
p12 < 4000 a12;
q1 - 4000 b1 >= 0;
q2 - 4000 b2 >= 0;
q3 - 4000 b3 >= 0;
q4 - 4000 b4 >= 0;
q5 - 4000 b5 >= 0;
q6 - 4000 b6 >= 0;
q7 - 4000 b7 >= 0;
q8 - 4000 b8 >= 0;
q9 - 4000 b9 >= 0;
q10 - 4000 b10 >= 0;
q11 - 4000 b11 >= 0;
q12 - 4000 b12 >= 0;
r1 - 20000 c1 >= 0;
r2 - 20000 c2 >= 0;
r3 - 20000 c3 >= 0;
r4 - 20000 c4 >= 0;
r5 - 20000 c5 >= 0;
r6 - 20000 c6 >= 0;
r7 - 20000 c7 >= 0;
r8 - 20000 c8 >= 0;
r9 - 20000 c9 >= 0;
r10 - 20000 c10 >= 0;
r11 - 20000 c11 >= 0;
r12 - 20000 c12 >= 0;

p1 + 100000 b1 <= 100000;
p2 + 100000 b2 <= 100000;
p3 + 100000 b3 <= 100000;
p4 + 100000 b4 <= 100000;
p5 + 100000 b5 <= 100000;
p6 + 100000 b6 <= 100000;
p7 + 100000 b7 <= 100000;
p8 + 100000 b8 <= 100000;
p9 + 100000 b9 <= 100000;
p10 + 100000 b10 <= 100000;
p11 + 100000 b11 <= 100000;
p12 + 100000 b12 <= 100000;

p1 +100000 c1 <= 100000;
p2 + 10000 c2 <= 100000;
p3 + 10000 c3 <= 100000;
p4 + 00000 c4 <= 100000;
p5 + 100000 c5 <= 100000;
p6 + 100000 c6 <= 100000;
p7 + 100000 c7 <= 100000;
p8 + 100000 c8 <= 100000;
p9 + 100000 c9 <= 100000;
p10 + 100000 c10 <= 100000;
p11 + 100000 c11 <= 100000;
p12 + 100000 c12 <= 100000;

q1 + 100000 a1 <= 100000;
q2 + 100000 a2 <= 100000;
q3 + 100000 a3 <= 100000;
q4 + 100000 a4 <= 100000;
q5 + 100000 a5 <= 100000;
q6 + 100000 a6 <= 100000;
q7 + 100000 a7 <= 100000;
q8 + 100000 a8 <= 100000;
q9 + 100000 a9 <= 100000;
q10 + 100000 a10 <= 100000;
q11 + 100000 a11 <= 100000;
q12 + 100000 a12 <= 100000;

q1 + 100000 c1 <= 100000;
q2 + 100000 c2 <= 100000;
q3 + 100000 c3 <= 100000;
q4 + 100000 c4 <= 100000;
q5 + 100000 c5 <= 100000;
q6 + 100000 c6 <= 100000;
q7 + 100000 c7 <= 100000;
q8 + 100000 c8 <= 100000;
q9 + 100000 c9 <= 100000;
q10 + 100000 c10 <= 100000;
q11 + 100000 c11 <= 100000;
q12 + 100000 c12 <= 100000;
r1 + 100000 a1 <= 100000;
r2 + 100000 a2 <= 100000;
r3 + 100000 a3 <= 100000;
r4 + 100000 a4 <= 100000;
r5 + 100000 a5 <= 100000;
r6 + 100000 a6 <= 100000;
r7 + 100000 a7 <= 100000;
r8 + 100000 a8 <= 100000;
r9 + 100000 a9 <= 100000;
r10 + 100000 a10 <= 100000;
r11 + 100000 a11 <= 100000;
r12 + 100000 a12 <= 100000;
r1 + 100000 b1 <= 100000;
r2 + 100000 b2 <= 100000;
r3 + 100000 b3 <= 100000;
r4 + 100000 b4 <= 100000;
r5 + 100000 b5 <= 100000;
r6 + 100000 b6 <= 100000;
r7 + 100000 b7 <= 100000;
r8 + 100000 b8 <= 100000;
r9 + 100000 b9 <= 100000;
r10 + 100000 b10 <= 100000;
r11 + 100000 b11 <= 100000;
r12 + 100000 b12 <= 100000;
a1 + b1 + c1 = 1;
a2 + b2 + c2 = 1;
a3 + b3 + c3 = 1;
a4 + b4 + c4 = 1;
a5 + b5 + c5 = 1;
a6 + b6 + c6 = 1;
a7 + b7 + c7 = 1;
a8 + b8 + c8 = 1;
a9 + b9 + c9 = 1;
a10 + b10 + c10 = 1;
a11 + b11 + c11 = 1;
a12 + b12 + c12 = 1;
/* define variables */
bin a1,a2,a3,a4,a5,a6,a7,a8,a9,a10,a11,a12;
bin b1,b2,b3,b4,b5,b6,b7,b8,b9,b10,b11,b12;
bin c1,c2,c3,c4,c5,c6,c7,c8,c9,c10,c11,c12;

